Name: triamylamine
SMILES: CCCCCN(CCCCC)CCCCC
Inchikey: OOHAUGDGCWURIT-UHFFFAOYSA-N
Generation: 1.0
MINE_id: 171162
Sources: [{u'Operators': [u'1.13.12.a'], u'Compound': u'C998b733bc319db2ef41d7ab4b8b476cb16ac2cfb'}]
Mass: 227.261300061
Formula: C15H34N
_id: Ce3fa0961092a37c7ca3301375b2a528023f24f21
Instrument: CFM-ID
Ionization Mode: Negative
Energy: 40 V
Num Peaks: 28
27.0234751 0.4251644503
39.0234751 0.5092940372
41.03912516 4.839900939
43.05477522 2.176616212
53.03912516 1.68469474
55.05477522 6.112756082
57.07042529 3.629180484
69.07042529 10.53827009
71.08607535 5.025520214
84.08132432 11.73449776
86.09697438 6.621889909
98.09697438 1.284332443
100.1126244 0.613207264
112.1126244 3.602380134
114.1282745 1.85322269
126.1282745 0.6934823459
128.1439246 0.5536067311
140.1439246 2.993105879
154.1595746 1.752486477
156.1752247 20.57549167
168.1752247 1.119291457
170.1908748 1.321304316
182.1908748 2.240101365
184.2065248 1.530254392
196.2065248 1.044416622
198.2221749 0.9771644664
210.2221749 1.314797648
226.253475 3.233569173

SMILES: NC#CO
Inchikey: DFDXYIMTUIOAFP-UHFFFAOYSA-N
Generation: 1.0
MINE_id: 37413
Sources: [{u'Operators': [u'4.2.-1.h'], u'Compound': u'C93fd644bd2fdb4ba17b1a9ffbc07f871ebc725e4'}]
Mass: 57.021463721
Formula: C2H3NO
_id: Ce388a76196fcf711a2414fae9a9657cca4086294
Instrument: CFM-ID
Ionization Mode: Negative
Energy: 10 V
Num Peaks: 3
26.003074 1.051087464
29.00273965 1.622613626
56.01363868 97.32629891

SMILES: NC#CO
Inchikey: DFDXYIMTUIOAFP-UHFFFAOYSA-N
Generation: 1.0
MINE_id: 37413
Sources: [{u'Operators': [u'4.2.-1.h'], u'Compound': u'C93fd644bd2fdb4ba17b1a9ffbc07f871ebc725e4'}]
Mass: 57.021463721
Formula: C2H3NO
_id: Ce388a76196fcf711a2414fae9a9657cca4086294
Instrument: CFM-ID
Ionization Mode: Negative
Energy: 20 V
Num Peaks: 3
26.003074 0.6921834242
29.00273965 3.628819342
56.01363868 95.67899723

SMILES: NC#CO
Inchikey: DFDXYIMTUIOAFP-UHFFFAOYSA-N
Generation: 1.0
MINE_id: 37413
Sources: [{u'Operators': [u'4.2.-1.h'], u'Compound': u'C93fd644bd2fdb4ba17b1a9ffbc07f871ebc725e4'}]
Mass: 57.021463721
Formula: C2H3NO
_id: Ce388a76196fcf711a2414fae9a9657cca4086294
Instrument: CFM-ID
Ionization Mode: Negative
Energy: 40 V
Num Peaks: 3
26.003074 7.293306661
29.00273965 17.84524314
56.01363868 74.8614502

SMILES: OC=C(C=O)O
Inchikey: NGSULTPMGQCSHK-UHFFFAOYSA-N
Generation: 1.0
MINE_id: 250
Sources: [{u'Operators': [u'1.3.1.a'], u'Compound': u'C9ab12f0b18581b01894164e3f72d4880745dfe58'}]
Mass: 88.016043988
Formula: C3H4O3
_id: Cf831e238f82178361aed86fff7f366778dc81ad8
Instrument: CFM-ID
Ionization Mode: Negative
Energy: 10 V
Num Peaks: 5
29.00273965 4.846245452
31.01838972 0.6321221498
56.99765427 13.3538158
68.99765427 1.967404559
87.00821896 79.20041204

SMILES: OC=C(C=O)O
Inchikey: NGSULTPMGQCSHK-UHFFFAOYSA-N
Generation: 1.0
MINE_id: 250
Sources: [{u'Operators': [u'1.3.1.a'], u'Compound': u'C9ab12f0b18581b01894164e3f72d4880745dfe58'}]
Mass: 88.016043988
Formula: C3H4O3
_id: Cf831e238f82178361aed86fff7f366778dc81ad8
Instrument: CFM-ID
Ionization Mode: Negative
Energy: 20 V
Num Peaks: 5
29.00273965 4.303811207
31.01838972 1.258912757
56.99765427 38.40158164
68.99765427 3.218433972
87.00821896 52.81726042

SMILES: OC=C(C=O)O
Inchikey: NGSULTPMGQCSHK-UHFFFAOYSA-N
Generation: 1.0
MINE_id: 250
Sources: [{u'Operators': [u'1.3.1.a'], u'Compound': u'C9ab12f0b18581b01894164e3f72d4880745dfe58'}]
Mass: 88.016043988
Formula: C3H4O3
_id: Cf831e238f82178361aed86fff7f366778dc81ad8
Instrument: CFM-ID
Ionization Mode: Negative
Energy: 40 V
Num Peaks: 5
29.00273965 4.752235196
31.01838972 1.741879103
56.99765427 84.27219317
68.99765427 3.982162745
87.00821896 5.251529789

SMILES: OC(=O)C1NCC(C1)OS(=O)(=O)O
Inchikey: YCNRMMKKUGDAMD-UHFFFAOYSA-N
Generation: 1.0
MINE_id: 7068
Sources: [{u'Operators': [u'2.8.2.a'], u'Compound': u'Ce32f2aa93ccb1974acea4caac364f04d6c0d4811'}]
Mass: 211.015058013
Formula: C5H9NO6S
_id: C9ff38ba752ec99fdf7db17911973b1447ed37e2e
Instrument: CFM-ID
Ionization Mode: Negative
Energy: 10 V
Num Peaks: 31
17.00273965 0.09545399679
44.99765427 0.07142621603
55.01838972 0.1184388303
66.03437413 1.04201926
68.05002419 1.479023867
71.01330434 0.7113968458
73.0289544 0.3009567434
80.96463989 0.8501173894
82.02928875 0.06708632299
82.98028996 0.737457434
84.04493881 0.3788664645
84.99594002 0.162028882
86.02420337 0.06617565225
86.06058888 0.555885263
88.03985343 0.06931197166
94.02928875 0.8417979499
96.95955451 1.730877135
98.97520458 0.09459842277
110.0242034 1.039592086
112.0398534 9.190763693
124.0034679 0.5427733757
126.019118 0.369036659
128.0347681 0.2416683627
130.0504181 3.03151637
148.0068391 0.1152605164
148.9908546 0.2292817245
164.0017537 1.559468445
166.0174037 12.65258279
191.9966683 11.69527307
192.9806839 0.1831356277
210.007233 49.77672864

SMILES: OC(=O)C1NCC(C1)OS(=O)(=O)O
Inchikey: YCNRMMKKUGDAMD-UHFFFAOYSA-N
Generation: 1.0
MINE_id: 7068
Sources: [{u'Operators': [u'2.8.2.a'], u'Compound': u'Ce32f2aa93ccb1974acea4caac364f04d6c0d4811'}]
Mass: 211.015058013
Formula: C5H9NO6S
_id: C9ff38ba752ec99fdf7db17911973b1447ed37e2e
Instrument: CFM-ID
Ionization Mode: Negative
Energy: 20 V
Num Peaks: 31
43.01838972 0.4035330952
57.03403978 1.66363443
59.04968984 0.4643418478
66.03437413 1.545728114
68.05002419 4.565993766
71.01330434 1.111421416
80.96463989 1.333540704
82.02928875 1.674873959
82.98028996 0.7386538363
84.04493881 6.174908017
86.02420337 0.7025518225
86.06058888 6.072224106
88.03985343 0.6608576343
94.02928875 0.634956462
96.95955451 3.802129447
98.02420337 0.6963556821
101.023869 0.4855773874
110.0242034 2.130098638
112.0398534 14.87270639
120.9595545 0.4286675336
124.0034679 1.448788755
126.019118 2.056318417
128.0347681 2.324338132
130.0504181 15.45189005
136.9908546 1.45907584
161.9861036 0.5427153828
164.0017537 1.931495562
166.0174037 8.183953647
191.9966683 5.914954551
192.9806839 0.4619301752
210.007233 10.06178519

SMILES: OC(=O)C1NCC(C1)OS(=O)(=O)O
Inchikey: YCNRMMKKUGDAMD-UHFFFAOYSA-N
Generation: 1.0
MINE_id: 7068
Sources: [{u'Operators': [u'2.8.2.a'], u'Compound': u'Ce32f2aa93ccb1974acea4caac364f04d6c0d4811'}]
Mass: 211.015058013
Formula: C5H9NO6S
_id: C9ff38ba752ec99fdf7db17911973b1447ed37e2e
Instrument: CFM-ID
Ionization Mode: Negative
Energy: 40 V
Num Peaks: 31
41.00273965 1.376215002
43.01838972 3.060501894
44.99765427 4.57504304
57.03403978 1.654183205
59.01330434 3.040546088
61.0289544 1.758857602
64.96972527 1.871846731
66.03437413 0.9858006025
68.05002419 1.221525233
68.99765427 1.267940628
69.99290324 3.112158764
71.01330434 3.058312523
72.0085533 5.065640214
75.04460446 1.245172163
80.96463989 12.87875877
82.02928875 2.742420774
82.98028996 2.239175243
84.04493881 9.399200733
84.99594002 2.868867087
86.02420337 4.719826807
86.06058888 8.225597355
96.95955451 6.256481279
98.02420337 0.7239649186
100.0398534 1.05657446
101.023869 0.7428636631
110.0242034 0.8484737259
112.0398534 6.756951704
120.9595545 0.9531700143
130.0504181 4.5279678
136.9908546 1.018974138
166.0174037 0.7469878359

Name: 3,4-dihydroxytetrahydrofuran-2,5-quinone
SMILES: OC1C(=O)OC(=O)C1O
Inchikey: BOGVTNYNTGOONP-UHFFFAOYSA-N
Generation: 1.0
MINE_id: 25400
Sources: [{u'Operators': [u'4.2.1.i'], u'Compound': u'C93b5c7a39251f34f92692c172a46ed55417967ca'}]
Mass: 132.005873228
Formula: C4H4O5
_id: C6f71635116f5acb9d5c2aa5e86aea048e770ba5d
Instrument: CFM-ID
Ionization Mode: Negative
Energy: 10 V
Num Peaks: 12
17.00273965 0.0203899181
29.00273965 0.1514554615
44.99765427 0.009992563116
56.99765427 0.1488131951
68.99765427 0.8893174855
72.99256889 0.2054192244
75.00821896 0.05078545072
84.99256889 0.457537323
87.00821896 6.552516164
100.9874835 0.1195802708
112.9874835 6.889613861
130.9980482 84.50457908

Name: 3,4-dihydroxytetrahydrofuran-2,5-quinone
SMILES: OC1C(=O)OC(=O)C1O
Inchikey: BOGVTNYNTGOONP-UHFFFAOYSA-N
Generation: 1.0
MINE_id: 25400
Sources: [{u'Operators': [u'4.2.1.i'], u'Compound': u'C93b5c7a39251f34f92692c172a46ed55417967ca'}]
Mass: 132.005873228
Formula: C4H4O5
_id: C6f71635116f5acb9d5c2aa5e86aea048e770ba5d
Instrument: CFM-ID
Ionization Mode: Negative
Energy: 20 V
Num Peaks: 12
17.00273965 0.1749949783
29.00273965 0.3829806978
44.99765427 0.01218004469
56.99765427 1.821053137
68.99765427 0.2228263002
72.99256889 2.65201057
75.00821896 0.4469432608
84.99256889 0.7653937032
87.00821896 3.42748797
100.9874835 0.04478970385
112.9874835 25.18311442
130.9980482 64.86622521

Name: 3,4-dihydroxytetrahydrofuran-2,5-quinone
SMILES: OC1C(=O)OC(=O)C1O
Inchikey: BOGVTNYNTGOONP-UHFFFAOYSA-N
Generation: 1.0
MINE_id: 25400
Sources: [{u'Operators': [u'4.2.1.i'], u'Compound': u'C93b5c7a39251f34f92692c172a46ed55417967ca'}]
Mass: 132.005873228
Formula: C4H4O5
_id: C6f71635116f5acb9d5c2aa5e86aea048e770ba5d
Instrument: CFM-ID
Ionization Mode: Negative
Energy: 40 V
Num Peaks: 12
17.00273965 0.2786838709
29.00273965 4.681760568
44.99765427 11.60277797
56.99765427 17.69334892
68.99765427 2.6011706
72.99256889 3.822470386
75.00821896 0.9183981282
84.99256889 11.42272488
87.00821896 9.933031393
100.9874835 0.2250366325
112.9874835 33.04152296
130.9980482 3.779073694

Name: 4-amino-3-hydroxy-benzoic acid
SMILES: OC(=O)c1ccc(c(c1)O)N
Inchikey: NFPYJDZQOKCYIE-UHFFFAOYSA-N
Generation: 1.0
MINE_id: 49753
Sources: [{u'Operators': [u'1.14.13.a'], u'Compound': u'Cf75114514dae8f782e95a9ca70e90bf6536cdc78'}]
Mass: 153.042593089
Formula: C7H7NO3
_id: C77d970deaa798ca4a15eded0cb9febe26f465288
Instrument: CFM-ID
Ionization Mode: Negative
Energy: 10 V
Num Peaks: 31
16.01872406 0.01756204886
40.01872406 0.8431115617
42.03437413 0.02825733103
44.99765427 0.1300781326
50.003074 0.06546806439
51.0234751 0.007578819592
52.01872406 0.07122908447
53.99798862 0.03034294848
54.03437413 0.1879906072
56.01363868 0.2895649541
66.03437413 0.01844867593
68.01363868 0.0264645918
68.99765427 0.03016453145
76.01872406 0.006886183514
78.03437413 0.008053087716
80.01363868 0.01431426987
82.02928875 0.06704955128
91.01838972 3.996707433
95.01330434 0.01248454189
99.00821896 0.008274130779
106.0292887 0.6085763944
108.0085533 0.02011952489
108.0449388 22.87951458
110.0242034 0.03586966065
111.008219 0.0353598281
120.0085533 0.1522089864
122.0242034 0.09017546217
125.023869 0.02465751744
126.019118 0.0307117197
134.0242034 5.312191494
152.0347681 64.95058428

Name: 4-amino-3-hydroxy-benzoic acid
SMILES: OC(=O)c1ccc(c(c1)O)N
Inchikey: NFPYJDZQOKCYIE-UHFFFAOYSA-N
Generation: 1.0
MINE_id: 49753
Sources: [{u'Operators': [u'1.14.13.a'], u'Compound': u'Cf75114514dae8f782e95a9ca70e90bf6536cdc78'}]
Mass: 153.042593089
Formula: C7H7NO3
_id: C77d970deaa798ca4a15eded0cb9febe26f465288
Instrument: CFM-ID
Ionization Mode: Negative
Energy: 20 V
Num Peaks: 31
39.0234751 0.1344611549
40.01872406 1.687294506
41.00273965 0.08173309925
42.03437413 0.09041955738
43.01838972 0.06480871986
44.99765427 0.3734049002
52.01872406 0.09068909424
53.99798862 0.07480686289
54.03437413 0.2069161697
56.01363868 0.1592180251
65.00273965 0.176686339
66.03437413 0.3043021374
67.01838972 0.09365465828
68.01363868 0.1032745932
78.03437413 0.2288554622
80.01363868 0.2086744409
82.02928875 0.4651437532
83.01330434 0.2650405786
91.01838972 5.409561088
99.00821896 0.1460540479
106.0292887 2.619138276
108.0085533 0.1903029249
108.0449388 46.06503141
110.0242034 0.6005953745
111.008219 0.09319709592
120.0085533 0.1348494915
122.0242034 0.1122882201
125.023869 0.1511046072
126.019118 0.1407034894
134.0242034 7.45842956
152.0347681 32.06936037

Name: 4-amino-3-hydroxy-benzoic acid
SMILES: OC(=O)c1ccc(c(c1)O)N
Inchikey: NFPYJDZQOKCYIE-UHFFFAOYSA-N
Generation: 1.0
MINE_id: 49753
Sources: [{u'Operators': [u'1.14.13.a'], u'Compound': u'Cf75114514dae8f782e95a9ca70e90bf6536cdc78'}]
Mass: 153.042593089
Formula: C7H7NO3
_id: C77d970deaa798ca4a15eded0cb9febe26f465288
Instrument: CFM-ID
Ionization Mode: Negative
Energy: 40 V
Num Peaks: 31
39.0234751 0.7970133518
40.01872406 1.953448908
41.00273965 0.7929876899
44.99765427 7.38356197
49.00782503 0.4846994604
50.003074 0.8950097007
51.0234751 2.180952632
53.00273965 0.6220794268
53.99798862 1.032712481
54.03437413 0.5152764106
56.01363868 4.207002595
65.00273965 2.782896457
67.01838972 0.8551468961
68.01363868 0.5828478754
68.99765427 1.113536393
74.003074 0.7046607185
76.01872406 2.603640357
78.03437413 3.914558037
79.01838972 0.5968080236
80.01363868 1.890611669
82.02928875 2.735868836
91.01838972 15.16813372
95.01330434 0.9010708226
104.0136387 0.6421279527
106.0292887 5.384910887
108.0449388 23.93443197
111.008219 0.5572911032
120.0085533 1.857819827
122.0242034 1.085773255
134.0242034 6.835345349
152.0347681 4.98777522

SMILES: COC(=O)C(C(C(=O)O)(O)C)CC(=O)O
Inchikey: SXDMRXMIGCKMPH-UHFFFAOYSA-N
Generation: 1.0
MINE_id: 52820
Sources: [{u'Operators': [u'2.1.1.a'], u'Compound': u'Cb090fc54e8903f015c236e03172c8810d213e9df'}]
Mass: 220.058302724
Formula: C8H12O7
_id: Cdfe9d44aaf0ce33d2e2034e386c7b9527b75e9ba
Instrument: CFM-ID
Ionization Mode: Negative
Energy: 10 V
Num Peaks: 31
43.01838972 0.2535776898
59.01330434 0.3611957094
71.01330434 1.087240194
72.99256889 0.2000635574
83.01330434 0.1995828274
85.0289544 0.4995500471
87.00821896 7.265041239
87.04460446 0.7652616496
89.02386902 5.570532906
99.00821896 1.939502339
101.023869 0.8408305995
113.023869 1.053836487
115.0031336 0.2495840623
115.0395191 1.368649107
127.0395191 0.9127893095
129.0187836 1.547659228
129.0551691 2.410988503
131.0344337 8.50270956
131.0708192 4.341785757
143.0344337 2.01312181
145.0500838 0.9129884424
157.0500838 2.502683747
159.0293483 3.025161235
171.0293483 0.1799122866
173.0449984 2.614331647
175.0606485 23.22905011
187.0242629 2.283909602
189.039913 0.5089063379
201.039913 1.740575955
203.0191776 0.5377969746
219.0504777 21.08118108
